20J6M/DAT/20J6MUNL-18.dat
20 6
26.3488 26.3488
23.112 23.112
42.1406 42.1406
32.9445 32.9445
21.5257 21.5257
2.6567 2.6567
45.6246 45.6246
22.9312 22.9312
11.8751 11.8751
9.1689 9.1689
37.9783 37.9783
11.6102 11.6102
43.7512 43.7512
26.5233 26.5233
38.1695 38.1695
27.4307 27.4307
0.5208 0.5208
1.6406 1.6406
11.1627 11.1627
40.4268 40.4268
477.5422