20J6M/SOL/20J6MUNL-18.sol
solution status: optimal solution found
objective value:                     79.5903666666666
x#1#6                                               1 	(obj:0)
x#2#3                                               1 	(obj:0)
x#3#1                                               1 	(obj:0)
x#4#2                                               1 	(obj:0)
x#5#4                                               1 	(obj:0)
x#6#1                                               1 	(obj:0)
x#7#5                                               1 	(obj:0)
x#8#5                                               1 	(obj:0)
x#9#4                                 0.2689296651537 	(obj:0)
x#9#5                                 0.7310703348463 	(obj:0)
x#10#2                                              1 	(obj:0)
x#11#2                              0.986799479351805 	(obj:0)
x#11#3                             0.0132005206481954 	(obj:0)
x#12#3                              0.572327206536779 	(obj:0)
x#12#4                              0.427672793463221 	(obj:0)
x#13#1                              0.783344609214528 	(obj:0)
x#13#4                              0.216655390785472 	(obj:0)
x#14#6                                              1 	(obj:0)
x#15#3                                              1 	(obj:0)
x#16#5                             0.0259721163999957 	(obj:0)
x#16#6                              0.974027883600004 	(obj:0)
x#17#1                                              1 	(obj:0)
x#18#5                                              1 	(obj:0)
x#19#3                                              1 	(obj:0)
x#20#4                                              1 	(obj:0)
z                                    79.5903666666666 	(obj:1)
